246754
98,71,16,19,55,15,20,85,67,18,33,56,25,13,46,3,14,102,60,101,73,42,78,90,69,93,95,59,38,72,48,2,77,104,94,37,103,35,84,47,66,17,49,41,80,91,82,23,86,9,65,58,75,26,43,0,27,57,88,11,22,92,79,8,105,7,5,30,51,96,28,29,54,4,97,63,89,45,12,64,36,6,52,32,62,74,24,44,68,39,87,76,1,81,100,70,53,40,10,61,21,99,50,83,31,34